Solver command line: ['/home/ffm2000/opt/cplex/cplex/bin/x86-64_linux/cplex']


Welcome to IBM(R) ILOG(R) CPLEX(R) Interactive Optimizer 22.1.1.0
  with Simplex, Mixed Integer & Barrier Optimizers
5725-A06 5725-A29 5724-Y48 5724-Y49 5724-Y54 5724-Y55 5655-Y21
Copyright IBM Corp. 1988, 2022.  All Rights Reserved.

Type 'help' for a list of available commands.
Type 'help' followed by a command name for more
information on commands.

CPLEX> Logfile 'cplex.log' closed.
Logfile 'solver_log_UK_min_olivine_no_clay_Technology96.log' open.
CPLEX> New value for mixed integer optimality gap tolerance: 0.0002
CPLEX> New value for time limit in seconds: 28000
CPLEX> New value for integrality tolerance: 0
CPLEX> New value for feasibility tolerance: 1e-08
CPLEX> Problem '/tmp/221904.1.RCCS/tmpn7twm2ws.pyomo.lp' read.
Read time = 0.42 sec. (33.57 ticks)
CPLEX> Problem name         : /tmp/221904.1.RCCS/tmpn7twm2ws.pyomo.lp
Objective sense      : Minimize
Variables            :  180317  [Nneg: 1,  Box: 180192,  Binary: 84,
                                 General Integer: 40]
Objective nonzeros   :       2
Linear constraints   :  404014  [Less: 200071,  Greater: 18540,  Equal: 185403]
  Nonzeros           :  665267
  RHS nonzeros       :   18552

Variables            : Min LB: 0.000000         Max UB: 1.000000e+10   
Objective nonzeros   : Min   : 0.1187400        Max   : 1.000000       
Linear constraints   :
  Nonzeros           : Min   : 0.02000000       Max   : 505146.4       
  RHS nonzeros       : Min   : 1.000000         Max   : 8.710684e+08   
CPLEX> Version identifier: 22.1.1.0 | 2022-11-28 | 9160aff4d
CPXPARAM_Simplex_Tolerances_Feasibility          1e-08
CPXPARAM_TimeLimit                               28000
CPXPARAM_MIP_Tolerances_MIPGap                   0.00020000000000000001
CPXPARAM_MIP_Tolerances_Integrality              0
Tried aggregator 4 times.
MIP Presolve eliminated 403839 rows and 180125 columns.
MIP Presolve modified 101 coefficients.
Aggregator did 146 substitutions.
Reduced MIP has 29 rows, 46 columns, and 167 nonzeros.
Reduced MIP has 36 binaries, 2 generals, 0 SOSs, and 0 indicators.
Presolve time = 0.29 sec. (358.27 ticks)
Found incumbent of value 1312420.146038 after 0.31 sec. (381.34 ticks)
Probing fixed 0 vars, tightened 7 bounds.
Probing time = 0.00 sec. (0.07 ticks)
Tried aggregator 1 time.
Detecting symmetries...
Reduced MIP has 29 rows, 46 columns, and 167 nonzeros.
Reduced MIP has 36 binaries, 2 generals, 0 SOSs, and 0 indicators.
Presolve time = 0.00 sec. (0.12 ticks)
Probing time = 0.00 sec. (0.05 ticks)
Clique table members: 69.
MIP emphasis: balance optimality and feasibility.
MIP search method: dynamic search.
Parallel mode: deterministic, using up to 32 threads.
Root relaxation solution time = 0.00 sec. (0.10 ticks)

        Nodes                                         Cuts/
   Node  Left     Objective  IInf  Best Integer    Best Bound    ItCnt     Gap

*     0+    0                      1312420.1460    21199.8750            98.38%
      0     0   508711.9075    12  1312420.1460   508711.9075       24   61.24%
*     0+    0                       566315.7523   508711.9075            10.17%
*     0+    0                       543666.7651   508711.9075             6.43%
      0     0   536281.5056    10   543666.7651      Cuts: 15       45    1.11%
      0     0   537120.2264    11   543666.7651       Cuts: 9       51    1.11%
Detecting symmetries...

Repeating presolve.
Tried aggregator 1 time.
MIP Presolve eliminated 10 rows and 13 columns.
Reduced MIP has 19 rows, 33 columns, and 112 nonzeros.
Reduced MIP has 23 binaries, 2 generals, 0 SOSs, and 0 indicators.
Presolve time = 0.00 sec. (0.07 ticks)
Probing fixed 0 vars, tightened 1 bounds.
Probing time = 0.00 sec. (0.03 ticks)
Cover probing fixed 0 vars, tightened 7 bounds.
Tried aggregator 1 time.
Detecting symmetries...
Reduced MIP has 19 rows, 33 columns, and 112 nonzeros.
Reduced MIP has 23 binaries, 2 generals, 0 SOSs, and 0 indicators.
Presolve time = 0.00 sec. (0.08 ticks)
Represolve time = 0.02 sec. (37.84 ticks)
Probing fixed 0 vars, tightened 2 bounds.
Probing time = 0.00 sec. (0.02 ticks)
Clique table members: 17.
MIP emphasis: balance optimality and feasibility.
MIP search method: dynamic search.
Parallel mode: deterministic, using up to 32 threads.
Root relaxation solution time = 0.00 sec. (0.11 ticks)

        Nodes                                         Cuts/
   Node  Left     Objective  IInf  Best Integer    Best Bound    ItCnt     Gap

*     0+    0                       543666.7651   538153.7499             1.01%
      0     0   537120.2264    11   543666.7651   538153.7499       75    1.01%
      0     0   537281.2955    14   543666.7651       Cuts: 9       77    0.97%
      0     0   537938.9344    10   543666.7651       Cuts: 7       84    0.97%
      0     0   538385.1816    14   543666.7651       Cuts: 6       91    0.97%
      0     0   538560.1489    14   543666.7651    MIRcuts: 4       93    0.94%
      0     0   538740.6982    14   543666.7651    MIRcuts: 3       95    0.91%
*     0+    0                       542836.4609   538740.6982             0.75%
      0     0   538953.8565    12   542836.4609       Cuts: 2       98    0.72%
      0     0   539405.0049    14   542836.4609       Cuts: 2      101    0.63%
      0     0   539585.2875    18   542836.4609       Cuts: 8      104    0.60%
      0     0   539834.1314    14   542836.4609    MIRcuts: 3      107    0.55%
Detecting symmetries...
      0     2   539834.1314    14   542836.4609   540119.0855      107    0.50%
Elapsed time = 1.00 sec. (469.28 ticks, tree = 0.02 MB, solutions = 4)

Clique cuts applied:  1
Cover cuts applied:  4
Mixed integer rounding cuts applied:  12
Lift and project cuts applied:  1
Gomory fractional cuts applied:  2

Root node processing (before b&c):
  Real time             =    0.77 sec. (476.26 ticks)
Parallel b&c, 32 threads:
  Real time             =    0.28 sec. (1.87 ticks)
  Sync time (average)   =    0.03 sec.
  Wait time (average)   =    0.00 sec.
                          ------------
Total (root+branch&cut) =    1.06 sec. (478.13 ticks)

Solution pool: 4 solutions saved.

MIP - Integer optimal solution:  Objective =  5.4283646095e+05
Solution time =    1.06 sec.  Iterations = 146  Nodes = 15
Deterministic time = 478.65 ticks  (450.26 ticks/sec)

CPLEX> Incumbent solution written to file '/tmp/221904.1.RCCS/tmpgz925ary.cplex.sol'.
CPLEX> 
